language ESSENCE' 1.0
letting shiftRequirements = [[13, 11, 16, 12], [11, 11, 16, 14], [10, 11, 17, 14], [6, 9, 13, 24], [20, 9, 11, 12], [22, 9, 10, 11], [22, 9, 10, 11]]
letting numberOfWeeks = 52
letting s_min = 2
letting s_max = 4
